(set-logic HORN)
(declare-fun state (Int Int Int Int Int Int Int Int Int Int Int Int Int Int Int Int Int Int Int (Array Int Int) (Array Int Int) (Array Int Int) (Array Int Int) Int Int (Array Int Int) (Array Int Int) Int Int Int Int Int Int Int Int Int Int Int Bool Bool Bool Int Int Int Int Int Int) Bool)
(assert (forall ((|hhv_ULTIMATE.start_L29_0_Int| Int) (|hhv_ULTIMATE.start_L29_1_Int| Int) (|hhv_ULTIMATE.start_L29_2_Int| Int) (|hhv_ULTIMATE.start_L29_3_Int| Int) (|hhv_ULTIMATE.start_L29_4_Int| Int) (|hhv_ULTIMATE.start_L29_5_Int| Int) (|hhv_ULTIMATE.start_L29_6_Int| Int) (|hhv_ULTIMATE.start_L29_7_Int| Int) (|hhv_ULTIMATE.start_L29_8_Int| Int) (|hhv_ULTIMATE.start_L29_9_Int| Int) (|hhv_ULTIMATE.start_L29_10_Int| Int) (|hhv_ULTIMATE.start_L29_11_Int| Int) (|hhv_ULTIMATE.start_L29_12_Int| Int) (|hhv_ULTIMATE.start_L29_13_Int| Int) (|hhv_ULTIMATE.start_L29_14_Int| Int) (|hhv_ULTIMATE.start_L29_15_Int| Int) (|hhv_ULTIMATE.start_L29_16_Int| Int) (|hhv_ULTIMATE.start_L29_17_Int| Int) (|hhv_ULTIMATE.start_L29_18_Int| Int) (|hhv_ULTIMATE.start_L29_19_Array_Int_Int| (Array Int Int)) (|hhv_ULTIMATE.start_L29_20_Array_Int_Int| (Array Int Int)) (|hbv_ULTIMATE.start_L13_21_Array_Int_Array_Int_Int| (Array Int Int)) (|hhv_ULTIMATE.start_L29_22_Array_Int_Array_Int_Int| (Array Int Int)) (|hhv_ULTIMATE.start_L29_23_Int| Int) (|hhv_ULTIMATE.start_L29_24_Int| Int) (|hhv_ULTIMATE.start_L29_25_Array_Int_Int| (Array Int Int)) (|hhv_ULTIMATE.start_L29_26_Array_Int_Int| (Array Int Int)) (|hhv_ULTIMATE.start_L29_27_Int| Int) (|hhv_ULTIMATE.start_L29_28_Int| Int) (|hhv_ULTIMATE.start_L29_29_Int| Int) (|hhv_ULTIMATE.start_L29_30_Int| Int) (|hhv_ULTIMATE.start_L29_31_Int| Int) (|hhv_ULTIMATE.start_L29_32_Int| Int) (|hbv_ULTIMATE.start_L13_33_Int| Int) (|hbv_ULTIMATE.start_L13_34_Int| Int) (|hhv_ULTIMATE.start_L29_35_Int| Int) (|hhv_ULTIMATE.start_L29_36_Int| Int) (|hhv_ULTIMATE.start_L29_37_Int| Int) (|hhv_ULTIMATE.start_L29_38_Bool| Bool) (|.loc.3| Bool) (|.loc.4| Bool) (|hbv_ULTIMATE.start_L9_0_Int| Int) (|hbv_ULTIMATE.start_L-1_15_Int| Int) (|hbv_ULTIMATE.start_L-1_10_Int| Int) (|hbv_ULTIMATE.start_L-1_13_Int| Int) (|hbv_ULTIMATE.start_L9_10_Int| Int) (|hbv_ULTIMATE.start_L29_34_Int| Int) (|.x.263| (Array Int Int)) (|.x.261| Int) (|.x.259| (Array Int Int)) (|.x.257| (Array Int Int)) (|.x.255| Int) (|.x.253| Int) (|.x.251| Int) (|.x.249| Int) (|.x.248| Int) (|.x.246| Int) (|.x.244| Int) (|.x.242| Int) (|.x.238| Int) (|.x.240| Int) (|.x.247| Int) (|.x.252| Int) (|.x.237| Int) (|.x.250| Int) (|.x.258| (Array Int Int)) (|hhv_ULTIMATE.start_ULTIMATE.startEXIT_38_Bool| Bool) (|.x.272| Int) (|.x.270| Int) (|.x.271| Int) (|.x.267| Int) (|.loc.5| Bool) (|.x.274| Int) (|.x.273| Int) (|.x.269| Int) (|.x.268| Int) (|.x.266| Int) (|.x.265| Int) (|.x.264| Int) (|.x.262| (Array Int Int)) (|.x.260| Int) (|.x.256| (Array Int Int)) (|.x.254| Int) (|.x.245| Int) (|.x.243| Int) (|.x.241| Int) (|.x.239| Int) (|.loc.6| Bool) (|.xtv.1| Int) (|.xtv.2| Int) (|.xtv.3| Int) (|.xtv.4| Int) (|.xtv.5| Int) (|.xtv.6| Int)) (=> (and (and (not .loc.3) (not .loc.4)) (and (and (and (and (and (and (and (and (and (and (and (and (and (= hhv_ULTIMATE.start_L29_15_Int hhv_ULTIMATE.start_L29_16_Int) (= hhv_ULTIMATE.start_L29_6_Int hhv_ULTIMATE.start_L29_7_Int)) (= hbv_ULTIMATE.start_L13_21_Array_Int_Array_Int_Int hhv_ULTIMATE.start_L29_22_Array_Int_Array_Int_Int)) (= hhv_ULTIMATE.start_L29_4_Int hhv_ULTIMATE.start_L29_5_Int)) (= hhv_ULTIMATE.start_L29_17_Int hhv_ULTIMATE.start_L29_18_Int)) (not hhv_ULTIMATE.start_L29_38_Bool)) (= hhv_ULTIMATE.start_L29_8_Int hhv_ULTIMATE.start_L29_9_Int)) (= hhv_ULTIMATE.start_L29_13_Int hhv_ULTIMATE.start_L29_14_Int)) (= hhv_ULTIMATE.start_L29_10_Int hhv_ULTIMATE.start_L29_11_Int)) (= hhv_ULTIMATE.start_L29_2_Int hhv_ULTIMATE.start_L29_3_Int)) (= hhv_ULTIMATE.start_L29_25_Array_Int_Int hhv_ULTIMATE.start_L29_26_Array_Int_Int)) (= hhv_ULTIMATE.start_L29_0_Int hhv_ULTIMATE.start_L29_1_Int)) (= hhv_ULTIMATE.start_L29_23_Int hhv_ULTIMATE.start_L29_24_Int)) (= hhv_ULTIMATE.start_L29_19_Array_Int_Int hhv_ULTIMATE.start_L29_20_Array_Int_Int))) (state |hhv_ULTIMATE.start_L29_0_Int| |hhv_ULTIMATE.start_L29_1_Int| |hhv_ULTIMATE.start_L29_2_Int| |hhv_ULTIMATE.start_L29_3_Int| |hhv_ULTIMATE.start_L29_4_Int| |hhv_ULTIMATE.start_L29_5_Int| |hhv_ULTIMATE.start_L29_6_Int| |hhv_ULTIMATE.start_L29_7_Int| |hhv_ULTIMATE.start_L29_8_Int| |hhv_ULTIMATE.start_L29_9_Int| |hhv_ULTIMATE.start_L29_10_Int| |hhv_ULTIMATE.start_L29_11_Int| |hhv_ULTIMATE.start_L29_12_Int| |hhv_ULTIMATE.start_L29_13_Int| |hhv_ULTIMATE.start_L29_14_Int| |hhv_ULTIMATE.start_L29_15_Int| |hhv_ULTIMATE.start_L29_16_Int| |hhv_ULTIMATE.start_L29_17_Int| |hhv_ULTIMATE.start_L29_18_Int| |hhv_ULTIMATE.start_L29_19_Array_Int_Int| |hhv_ULTIMATE.start_L29_20_Array_Int_Int| |hbv_ULTIMATE.start_L13_21_Array_Int_Array_Int_Int| |hhv_ULTIMATE.start_L29_22_Array_Int_Array_Int_Int| |hhv_ULTIMATE.start_L29_23_Int| |hhv_ULTIMATE.start_L29_24_Int| |hhv_ULTIMATE.start_L29_25_Array_Int_Int| |hhv_ULTIMATE.start_L29_26_Array_Int_Int| |hhv_ULTIMATE.start_L29_27_Int| |hhv_ULTIMATE.start_L29_28_Int| |hhv_ULTIMATE.start_L29_29_Int| |hhv_ULTIMATE.start_L29_30_Int| |hhv_ULTIMATE.start_L29_31_Int| |hhv_ULTIMATE.start_L29_32_Int| |hbv_ULTIMATE.start_L13_33_Int| |hbv_ULTIMATE.start_L13_34_Int| |hhv_ULTIMATE.start_L29_35_Int| |hhv_ULTIMATE.start_L29_36_Int| |hhv_ULTIMATE.start_L29_37_Int| |hhv_ULTIMATE.start_L29_38_Bool| |.loc.3| |.loc.4| |hbv_ULTIMATE.start_L9_0_Int| |hbv_ULTIMATE.start_L-1_15_Int| |hbv_ULTIMATE.start_L-1_10_Int| |hbv_ULTIMATE.start_L-1_13_Int| |hbv_ULTIMATE.start_L9_10_Int| |hbv_ULTIMATE.start_L29_34_Int|))))
(assert (forall ((|hhv_ULTIMATE.start_L29_0_Int| Int) (|hhv_ULTIMATE.start_L29_1_Int| Int) (|hhv_ULTIMATE.start_L29_2_Int| Int) (|hhv_ULTIMATE.start_L29_3_Int| Int) (|hhv_ULTIMATE.start_L29_4_Int| Int) (|hhv_ULTIMATE.start_L29_5_Int| Int) (|hhv_ULTIMATE.start_L29_6_Int| Int) (|hhv_ULTIMATE.start_L29_7_Int| Int) (|hhv_ULTIMATE.start_L29_8_Int| Int) (|hhv_ULTIMATE.start_L29_9_Int| Int) (|hhv_ULTIMATE.start_L29_10_Int| Int) (|hhv_ULTIMATE.start_L29_11_Int| Int) (|hhv_ULTIMATE.start_L29_12_Int| Int) (|hhv_ULTIMATE.start_L29_13_Int| Int) (|hhv_ULTIMATE.start_L29_14_Int| Int) (|hhv_ULTIMATE.start_L29_15_Int| Int) (|hhv_ULTIMATE.start_L29_16_Int| Int) (|hhv_ULTIMATE.start_L29_17_Int| Int) (|hhv_ULTIMATE.start_L29_18_Int| Int) (|hhv_ULTIMATE.start_L29_19_Array_Int_Int| (Array Int Int)) (|hhv_ULTIMATE.start_L29_20_Array_Int_Int| (Array Int Int)) (|hbv_ULTIMATE.start_L13_21_Array_Int_Array_Int_Int| (Array Int Int)) (|hhv_ULTIMATE.start_L29_22_Array_Int_Array_Int_Int| (Array Int Int)) (|hhv_ULTIMATE.start_L29_23_Int| Int) (|hhv_ULTIMATE.start_L29_24_Int| Int) (|hhv_ULTIMATE.start_L29_25_Array_Int_Int| (Array Int Int)) (|hhv_ULTIMATE.start_L29_26_Array_Int_Int| (Array Int Int)) (|hhv_ULTIMATE.start_L29_27_Int| Int) (|hhv_ULTIMATE.start_L29_28_Int| Int) (|hhv_ULTIMATE.start_L29_29_Int| Int) (|hhv_ULTIMATE.start_L29_30_Int| Int) (|hhv_ULTIMATE.start_L29_31_Int| Int) (|hhv_ULTIMATE.start_L29_32_Int| Int) (|hbv_ULTIMATE.start_L13_33_Int| Int) (|hbv_ULTIMATE.start_L13_34_Int| Int) (|hhv_ULTIMATE.start_L29_35_Int| Int) (|hhv_ULTIMATE.start_L29_36_Int| Int) (|hhv_ULTIMATE.start_L29_37_Int| Int) (|hhv_ULTIMATE.start_L29_38_Bool| Bool) (|.loc.3| Bool) (|.loc.4| Bool) (|hbv_ULTIMATE.start_L9_0_Int| Int) (|hbv_ULTIMATE.start_L-1_15_Int| Int) (|hbv_ULTIMATE.start_L-1_10_Int| Int) (|hbv_ULTIMATE.start_L-1_13_Int| Int) (|hbv_ULTIMATE.start_L9_10_Int| Int) (|hbv_ULTIMATE.start_L29_34_Int| Int) (|.x.263| (Array Int Int)) (|.x.261| Int) (|.x.259| (Array Int Int)) (|.x.257| (Array Int Int)) (|.x.255| Int) (|.x.253| Int) (|.x.251| Int) (|.x.249| Int) (|.x.248| Int) (|.x.246| Int) (|.x.244| Int) (|.x.242| Int) (|.x.238| Int) (|.x.240| Int) (|.x.247| Int) (|.x.252| Int) (|.x.237| Int) (|.x.250| Int) (|.x.258| (Array Int Int)) (|hhv_ULTIMATE.start_ULTIMATE.startEXIT_38_Bool| Bool) (|.x.272| Int) (|.x.270| Int) (|.x.271| Int) (|.x.267| Int) (|.loc.5| Bool) (|.x.274| Int) (|.x.273| Int) (|.x.269| Int) (|.x.268| Int) (|.x.266| Int) (|.x.265| Int) (|.x.264| Int) (|.x.262| (Array Int Int)) (|.x.260| Int) (|.x.256| (Array Int Int)) (|.x.254| Int) (|.x.245| Int) (|.x.243| Int) (|.x.241| Int) (|.x.239| Int) (|.loc.6| Bool) (|.xtv.1| Int) (|.xtv.2| Int) (|.xtv.3| Int) (|.xtv.4| Int) (|.xtv.5| Int) (|.xtv.6| Int)) (=> (and (state |hhv_ULTIMATE.start_L29_0_Int| |hhv_ULTIMATE.start_L29_1_Int| |hhv_ULTIMATE.start_L29_2_Int| |hhv_ULTIMATE.start_L29_3_Int| |hhv_ULTIMATE.start_L29_4_Int| |hhv_ULTIMATE.start_L29_5_Int| |hhv_ULTIMATE.start_L29_6_Int| |hhv_ULTIMATE.start_L29_7_Int| |hhv_ULTIMATE.start_L29_8_Int| |hhv_ULTIMATE.start_L29_9_Int| |hhv_ULTIMATE.start_L29_10_Int| |hhv_ULTIMATE.start_L29_11_Int| |hhv_ULTIMATE.start_L29_12_Int| |hhv_ULTIMATE.start_L29_13_Int| |hhv_ULTIMATE.start_L29_14_Int| |hhv_ULTIMATE.start_L29_15_Int| |hhv_ULTIMATE.start_L29_16_Int| |hhv_ULTIMATE.start_L29_17_Int| |hhv_ULTIMATE.start_L29_18_Int| |hhv_ULTIMATE.start_L29_19_Array_Int_Int| |hhv_ULTIMATE.start_L29_20_Array_Int_Int| |hbv_ULTIMATE.start_L13_21_Array_Int_Array_Int_Int| |hhv_ULTIMATE.start_L29_22_Array_Int_Array_Int_Int| |hhv_ULTIMATE.start_L29_23_Int| |hhv_ULTIMATE.start_L29_24_Int| |hhv_ULTIMATE.start_L29_25_Array_Int_Int| |hhv_ULTIMATE.start_L29_26_Array_Int_Int| |hhv_ULTIMATE.start_L29_27_Int| |hhv_ULTIMATE.start_L29_28_Int| |hhv_ULTIMATE.start_L29_29_Int| |hhv_ULTIMATE.start_L29_30_Int| |hhv_ULTIMATE.start_L29_31_Int| |hhv_ULTIMATE.start_L29_32_Int| |hbv_ULTIMATE.start_L13_33_Int| |hbv_ULTIMATE.start_L13_34_Int| |hhv_ULTIMATE.start_L29_35_Int| |hhv_ULTIMATE.start_L29_36_Int| |hhv_ULTIMATE.start_L29_37_Int| |hhv_ULTIMATE.start_L29_38_Bool| |.loc.3| |.loc.4| |hbv_ULTIMATE.start_L9_0_Int| |hbv_ULTIMATE.start_L-1_15_Int| |hbv_ULTIMATE.start_L-1_10_Int| |hbv_ULTIMATE.start_L-1_13_Int| |hbv_ULTIMATE.start_L9_10_Int| |hbv_ULTIMATE.start_L29_34_Int|) (let ((.def_57 (not .loc.3))) (let ((.def_58 (not .loc.4))) (let ((.def_131 (= .x.247 .x.252))) (let ((.def_135 (= .x.237 .x.250))) (let ((.def_139 (= hbv_ULTIMATE.start_L29_34_Int 0))) (let ((.def_158 (or hhv_ULTIMATE.start_L29_38_Bool (and (and (<= hhv_ULTIMATE.start_L29_27_Int 2147483647) (and (<= (- 2147483648) hhv_ULTIMATE.start_L29_27_Int) (= hbv_ULTIMATE.start_L29_34_Int (select (select .x.258 hhv_ULTIMATE.start_L29_2_Int) hhv_ULTIMATE.start_L29_23_Int)))) (= .x.258 (store hbv_ULTIMATE.start_L13_21_Array_Int_Array_Int_Int hhv_ULTIMATE.start_L29_2_Int (store (select hbv_ULTIMATE.start_L13_21_Array_Int_Array_Int_Int hhv_ULTIMATE.start_L29_2_Int) hhv_ULTIMATE.start_L29_23_Int hhv_ULTIMATE.start_L29_27_Int))))))) (let ((.def_162 (= hhv_ULTIMATE.start_L29_35_Int .x.272))) (let ((.def_175 (= hhv_ULTIMATE.start_L29_38_Bool hhv_ULTIMATE.start_ULTIMATE.startEXIT_38_Bool))) (let ((.def_188 (and .def_131 .def_135))) (let ((.def_197 (not .loc.5))) (let ((.def_265 (store (store hhv_ULTIMATE.start_L29_19_Array_Int_Int 0 0) .x.239 1))) (let ((.def_269 (select hbv_ULTIMATE.start_L13_21_Array_Int_Array_Int_Int .x.243))) (let ((.def_285 (and (= .x.256 (store .def_265 .x.243 1)) (and (= .x.245 0) (and (= (select .def_269 .x.254) 0) (and (= hbv_ULTIMATE.start_L-1_10_Int 0) (and (= .x.262 (store (store hhv_ULTIMATE.start_L29_25_Array_Int_Int .x.239 4) .x.243 4)) (and (= hbv_ULTIMATE.start_L-1_15_Int 0) (not (<= hhv_ULTIMATE.start_L29_12_Int .x.243)))))))))) (let ((.def_288 (not (<= hhv_ULTIMATE.start_L29_12_Int .x.239)))) (let ((.def_290 (= .x.260 0))) (let ((.def_294 (= (select (select hbv_ULTIMATE.start_L13_21_Array_Int_Array_Int_Int .x.239) .x.260) 0))) (let ((.def_297 (not (= .x.243 0)))) (let ((.def_299 (= .x.241 0))) (let ((.def_302 (= .x.239 0))) (let ((.def_304 (= (ite .def_302 0 (select hhv_ULTIMATE.start_L29_19_Array_Int_Int .x.239)) 0))) (let ((.def_306 (= .x.254 0))) (let ((.def_308 (not .def_302))) (let ((.def_310 (= hbv_ULTIMATE.start_L-1_13_Int 0))) (let ((.def_313 (= (select .def_265 .x.243) 0))) (let ((.def_318 (store hbv_ULTIMATE.start_L13_21_Array_Int_Array_Int_Int .x.243 (store .def_269 .x.254 1)))) (let ((.def_322 (= .x.258 (store .def_318 .x.239 (store (select .def_318 .x.239) .x.260 4))))) (let ((.def_324 (= .x.252 .x.254))) (let ((.def_331 (select (select .x.258 .x.239) .x.260))) (let ((.def_345 (= .x.250 .x.243))) (let ((.def_348 (= .x.265 1))) (let ((.def_358 (and (not .loc.6) (and .def_175 (and .def_57 (and .loc.5 (and .def_58 .def_162))))))) (and (and (= hhv_ULTIMATE.start_L29_26_Array_Int_Int .x.263) (and (= hhv_ULTIMATE.start_L29_24_Int .x.261) (and (= hhv_ULTIMATE.start_L29_22_Array_Int_Array_Int_Int .x.259) (and (= hhv_ULTIMATE.start_L29_20_Array_Int_Int .x.257) (and (= hhv_ULTIMATE.start_L29_18_Int .x.255) (and (= hhv_ULTIMATE.start_L29_16_Int .x.253) (and (= hhv_ULTIMATE.start_L29_14_Int .x.251) (and (= hhv_ULTIMATE.start_L29_12_Int .x.249) (and (= hhv_ULTIMATE.start_L29_11_Int .x.248) (and (= hhv_ULTIMATE.start_L29_9_Int .x.246) (and (= hhv_ULTIMATE.start_L29_7_Int .x.244) (and (= hhv_ULTIMATE.start_L29_5_Int .x.242) (and (= hhv_ULTIMATE.start_L29_1_Int .x.238) (= hhv_ULTIMATE.start_L29_3_Int .x.240)))))))))))))) (or (or (and (or (or (and (or (and .def_58 (and .loc.3 (and (or (not .def_131) (or (or hhv_ULTIMATE.start_L29_38_Bool (not .def_135)) .def_139)) (and (and .def_158 hhv_ULTIMATE.start_ULTIMATE.startEXIT_38_Bool) .def_162)))) (and (or hhv_ULTIMATE.start_L29_38_Bool (= hhv_ULTIMATE.start_L29_30_Int .x.272)) (and (= hbv_ULTIMATE.start_L13_21_Array_Int_Array_Int_Int .x.258) (and (= hbv_ULTIMATE.start_L13_33_Int .x.270) (and (= hbv_ULTIMATE.start_L13_34_Int .x.271) (and (and .loc.4 .def_57) .def_175)))))) (and (= hhv_ULTIMATE.start_L29_30_Int .x.267) .loc.5)) (and (or hhv_ULTIMATE.start_ULTIMATE.startEXIT_38_Bool (and (and (= .x.267 0) .def_188) (not .def_139))) (and (and .def_175 (and .def_58 (and .loc.3 (and .def_158 .def_162)))) .def_197))) (and .def_197 (and .def_58 (and .loc.3 (and .def_162 (and .def_158 (and hhv_ULTIMATE.start_L29_38_Bool hhv_ULTIMATE.start_ULTIMATE.startEXIT_38_Bool))))))) (and (and (= hhv_ULTIMATE.start_L29_37_Int .x.274) (and (= hhv_ULTIMATE.start_L29_36_Int .x.273) (and (= hhv_ULTIMATE.start_L29_32_Int .x.269) (and (= hhv_ULTIMATE.start_L29_31_Int .x.268) (and (= hhv_ULTIMATE.start_L29_29_Int .x.266) (and (= hhv_ULTIMATE.start_L29_28_Int .x.265) (and (= hhv_ULTIMATE.start_L29_27_Int .x.264) (and (= hhv_ULTIMATE.start_L29_25_Array_Int_Int .x.262) (and (= hhv_ULTIMATE.start_L29_23_Int .x.260) (and (= hhv_ULTIMATE.start_L29_19_Array_Int_Int .x.256) (and (= hhv_ULTIMATE.start_L29_17_Int .x.254) (and (= hhv_ULTIMATE.start_L29_15_Int .x.252) (and (= hhv_ULTIMATE.start_L29_13_Int .x.250) (and (= hhv_ULTIMATE.start_L29_10_Int .x.247) (and (= hhv_ULTIMATE.start_L29_8_Int .x.245) (and (= hhv_ULTIMATE.start_L29_6_Int .x.243) (and (= hhv_ULTIMATE.start_L29_4_Int .x.241) (and (= hhv_ULTIMATE.start_L29_0_Int .x.237) (= hhv_ULTIMATE.start_L29_2_Int .x.239))))))))))))))))))) .loc.6)) (and (or hhv_ULTIMATE.start_L29_38_Bool (and (and (and (and (and (and (and (and (and (and (and .def_139 .def_285) .def_288) .def_290) .def_294) .def_297) .def_299) .def_304) .def_306) .def_308) .def_310) .def_313)) (and (or hhv_ULTIMATE.start_ULTIMATE.startEXIT_38_Bool (and (and (and (and (and (= hbv_ULTIMATE.start_L9_0_Int .x.239) .def_322) .def_324) (= (+ .x.265 (+ (* (- 1) (select (select .x.258 hbv_ULTIMATE.start_L9_0_Int) hbv_ULTIMATE.start_L9_10_Int)) (+ .def_331 (* (- 1) (select (select .x.258 .x.250) .x.252))))) 0)) (= hbv_ULTIMATE.start_L9_10_Int .x.260)) .def_345)) (and (or hhv_ULTIMATE.start_ULTIMATE.startEXIT_38_Bool (and (and .def_188 .def_348) (= .x.265 .x.264))) .def_358)))) (and (or hhv_ULTIMATE.start_L29_38_Bool (and .def_313 (and .def_310 (and .def_308 (and .def_306 (and .def_304 (and .def_299 (and .def_297 (and .def_294 (and .def_290 (and .def_288 (and .def_285 (= hbv_ULTIMATE.start_L9_0_Int 0))))))))))))) (and (or hhv_ULTIMATE.start_ULTIMATE.startEXIT_38_Bool (and .def_345 (and (and (and .def_324 (and .def_322 (= .x.237 .x.239))) (= (+ .x.265 (+ .def_331 (+ (* (- 1) (select (select .x.258 .x.250) .x.252)) (* (- 1) (select (select .x.258 .x.237) .x.247))))) 0)) (= .x.247 .x.260)))) (and .def_358 (or hhv_ULTIMATE.start_ULTIMATE.startEXIT_38_Bool (and (not .def_348) (= .x.264 0)))))))))))))))))))))))))))))))))))))))) (state |.x.237| |.x.238| |.x.239| |.x.240| |.x.241| |.x.242| |.x.243| |.x.244| |.x.245| |.x.246| |.x.247| |.x.248| |.x.249| |.x.250| |.x.251| |.x.252| |.x.253| |.x.254| |.x.255| |.x.256| |.x.257| |.x.258| |.x.259| |.x.260| |.x.261| |.x.262| |.x.263| |.x.264| |.x.265| |.x.266| |.x.267| |.x.268| |.x.269| |.x.270| |.x.271| |.x.272| |.x.273| |.x.274| |hhv_ULTIMATE.start_ULTIMATE.startEXIT_38_Bool| |.loc.5| |.loc.6| |.xtv.1| |.xtv.2| |.xtv.3| |.xtv.4| |.xtv.5| |.xtv.6|))))
(assert (forall ((|hhv_ULTIMATE.start_L29_0_Int| Int) (|hhv_ULTIMATE.start_L29_1_Int| Int) (|hhv_ULTIMATE.start_L29_2_Int| Int) (|hhv_ULTIMATE.start_L29_3_Int| Int) (|hhv_ULTIMATE.start_L29_4_Int| Int) (|hhv_ULTIMATE.start_L29_5_Int| Int) (|hhv_ULTIMATE.start_L29_6_Int| Int) (|hhv_ULTIMATE.start_L29_7_Int| Int) (|hhv_ULTIMATE.start_L29_8_Int| Int) (|hhv_ULTIMATE.start_L29_9_Int| Int) (|hhv_ULTIMATE.start_L29_10_Int| Int) (|hhv_ULTIMATE.start_L29_11_Int| Int) (|hhv_ULTIMATE.start_L29_12_Int| Int) (|hhv_ULTIMATE.start_L29_13_Int| Int) (|hhv_ULTIMATE.start_L29_14_Int| Int) (|hhv_ULTIMATE.start_L29_15_Int| Int) (|hhv_ULTIMATE.start_L29_16_Int| Int) (|hhv_ULTIMATE.start_L29_17_Int| Int) (|hhv_ULTIMATE.start_L29_18_Int| Int) (|hhv_ULTIMATE.start_L29_19_Array_Int_Int| (Array Int Int)) (|hhv_ULTIMATE.start_L29_20_Array_Int_Int| (Array Int Int)) (|hbv_ULTIMATE.start_L13_21_Array_Int_Array_Int_Int| (Array Int Int)) (|hhv_ULTIMATE.start_L29_22_Array_Int_Array_Int_Int| (Array Int Int)) (|hhv_ULTIMATE.start_L29_23_Int| Int) (|hhv_ULTIMATE.start_L29_24_Int| Int) (|hhv_ULTIMATE.start_L29_25_Array_Int_Int| (Array Int Int)) (|hhv_ULTIMATE.start_L29_26_Array_Int_Int| (Array Int Int)) (|hhv_ULTIMATE.start_L29_27_Int| Int) (|hhv_ULTIMATE.start_L29_28_Int| Int) (|hhv_ULTIMATE.start_L29_29_Int| Int) (|hhv_ULTIMATE.start_L29_30_Int| Int) (|hhv_ULTIMATE.start_L29_31_Int| Int) (|hhv_ULTIMATE.start_L29_32_Int| Int) (|hbv_ULTIMATE.start_L13_33_Int| Int) (|hbv_ULTIMATE.start_L13_34_Int| Int) (|hhv_ULTIMATE.start_L29_35_Int| Int) (|hhv_ULTIMATE.start_L29_36_Int| Int) (|hhv_ULTIMATE.start_L29_37_Int| Int) (|hhv_ULTIMATE.start_L29_38_Bool| Bool) (|.loc.3| Bool) (|.loc.4| Bool) (|hbv_ULTIMATE.start_L9_0_Int| Int) (|hbv_ULTIMATE.start_L-1_15_Int| Int) (|hbv_ULTIMATE.start_L-1_10_Int| Int) (|hbv_ULTIMATE.start_L-1_13_Int| Int) (|hbv_ULTIMATE.start_L9_10_Int| Int) (|hbv_ULTIMATE.start_L29_34_Int| Int) (|.x.263| (Array Int Int)) (|.x.261| Int) (|.x.259| (Array Int Int)) (|.x.257| (Array Int Int)) (|.x.255| Int) (|.x.253| Int) (|.x.251| Int) (|.x.249| Int) (|.x.248| Int) (|.x.246| Int) (|.x.244| Int) (|.x.242| Int) (|.x.238| Int) (|.x.240| Int) (|.x.247| Int) (|.x.252| Int) (|.x.237| Int) (|.x.250| Int) (|.x.258| (Array Int Int)) (|hhv_ULTIMATE.start_ULTIMATE.startEXIT_38_Bool| Bool) (|.x.272| Int) (|.x.270| Int) (|.x.271| Int) (|.x.267| Int) (|.loc.5| Bool) (|.x.274| Int) (|.x.273| Int) (|.x.269| Int) (|.x.268| Int) (|.x.266| Int) (|.x.265| Int) (|.x.264| Int) (|.x.262| (Array Int Int)) (|.x.260| Int) (|.x.256| (Array Int Int)) (|.x.254| Int) (|.x.245| Int) (|.x.243| Int) (|.x.241| Int) (|.x.239| Int) (|.loc.6| Bool) (|.xtv.1| Int) (|.xtv.2| Int) (|.xtv.3| Int) (|.xtv.4| Int) (|.xtv.5| Int) (|.xtv.6| Int)) (=> (state |hhv_ULTIMATE.start_L29_0_Int| |hhv_ULTIMATE.start_L29_1_Int| |hhv_ULTIMATE.start_L29_2_Int| |hhv_ULTIMATE.start_L29_3_Int| |hhv_ULTIMATE.start_L29_4_Int| |hhv_ULTIMATE.start_L29_5_Int| |hhv_ULTIMATE.start_L29_6_Int| |hhv_ULTIMATE.start_L29_7_Int| |hhv_ULTIMATE.start_L29_8_Int| |hhv_ULTIMATE.start_L29_9_Int| |hhv_ULTIMATE.start_L29_10_Int| |hhv_ULTIMATE.start_L29_11_Int| |hhv_ULTIMATE.start_L29_12_Int| |hhv_ULTIMATE.start_L29_13_Int| |hhv_ULTIMATE.start_L29_14_Int| |hhv_ULTIMATE.start_L29_15_Int| |hhv_ULTIMATE.start_L29_16_Int| |hhv_ULTIMATE.start_L29_17_Int| |hhv_ULTIMATE.start_L29_18_Int| |hhv_ULTIMATE.start_L29_19_Array_Int_Int| |hhv_ULTIMATE.start_L29_20_Array_Int_Int| |hbv_ULTIMATE.start_L13_21_Array_Int_Array_Int_Int| |hhv_ULTIMATE.start_L29_22_Array_Int_Array_Int_Int| |hhv_ULTIMATE.start_L29_23_Int| |hhv_ULTIMATE.start_L29_24_Int| |hhv_ULTIMATE.start_L29_25_Array_Int_Int| |hhv_ULTIMATE.start_L29_26_Array_Int_Int| |hhv_ULTIMATE.start_L29_27_Int| |hhv_ULTIMATE.start_L29_28_Int| |hhv_ULTIMATE.start_L29_29_Int| |hhv_ULTIMATE.start_L29_30_Int| |hhv_ULTIMATE.start_L29_31_Int| |hhv_ULTIMATE.start_L29_32_Int| |hbv_ULTIMATE.start_L13_33_Int| |hbv_ULTIMATE.start_L13_34_Int| |hhv_ULTIMATE.start_L29_35_Int| |hhv_ULTIMATE.start_L29_36_Int| |hhv_ULTIMATE.start_L29_37_Int| |hhv_ULTIMATE.start_L29_38_Bool| |.loc.3| |.loc.4| |hbv_ULTIMATE.start_L9_0_Int| |hbv_ULTIMATE.start_L-1_15_Int| |hbv_ULTIMATE.start_L-1_10_Int| |hbv_ULTIMATE.start_L-1_13_Int| |hbv_ULTIMATE.start_L9_10_Int| |hbv_ULTIMATE.start_L29_34_Int|) (not (and hhv_ULTIMATE.start_L29_38_Bool (and .loc.3 .loc.4))))))
(check-sat)
